Route #1: 34 28 52 16 58 2 57 49
Route #2: 12 14 43 18 1 42 55
Route #3: 6 47 20 9 17 35 24 46
Route #4: 45 23 32 50 27 11
Route #5: 44 22 7 5 36 21 33 54
Route #6: 39 38 29 59 13
Route #7: 25 26 56 48
Route #8: 10 4 41 53 30 8 19 37
Route #9: 3 31 15 40 51

Cost: 3705.72579024543
